Linux optc-02-10 4.15.0-58-generic #64-Ubuntu SMP Tue Aug 6 11:12:41 UTC 2019 x86_64 x86_64 x86_64 GNU/Linux

top - 16:44:13 up 1 day,  6:45,  0 users,  load average: 0,61, 0,90, 0,97
Tasks: 286 gesamt,   1 laufend, 149 schlafend,   0 gestoppt,   0 Zombie
%CPU(s):  7,8 be,  0,3 sy,  0,0 ni, 91,9 un,  0,0 wa,  0,0 hi,  0,0 si,  0,0 st
KiB Spch : 97514992 gesamt, 95311840 frei,   647604 belegt,  1555548 Puff/Cache
KiB Swap:  8388604 gesamt,  8388604 frei,        0 belegt. 96125600 verfü Spch 

  PID USER      PR  NI    VIRT    RES    SHR S  %CPU %MEM     ZEIT+ BEFEHL
    1 root      20   0  233860   9380   6668 S   0,0  0,0   0:10.33 systemd
    2 root      20   0       0      0      0 S   0,0  0,0   0:00.11 kthreadd
    4 root       0 -20       0      0      0 I   0,0  0,0   0:00.00 kworker/0:+
    6 root      20   0       0      0      0 I   0,0  0,0   0:00.00 kworker/u3+
    7 root       0 -20       0      0      0 I   0,0  0,0   0:00.00 mm_percpu_+
    8 root      20   0       0      0      0 S   0,0  0,0   0:00.02 ksoftirqd/0
    9 root      20   0       0      0      0 I   0,0  0,0   0:11.16 rcu_sched
   10 root      20   0       0      0      0 I   0,0  0,0   0:00.00 rcu_bh

hard time limit: 04:10:00
hard mem limit: 55100

SLURM jobID: 2182349

@01 /nfs/optimi/kombadon/IP/miplib2017/neos-4647030-tutaki.mps.gz ===========
-----------------------------
Do 22. Aug 16:44:13 CEST 2019
-----------------------------
@03 1566485053
@05 7200
SCIP version 6.0.0 [precision: 8 byte] [memory: block] [mode: optimized] [LP solver: CPLEX 12.8.0.0] [GitHash: 41ab6e0014]
Copyright (C) 2002-2018 Konrad-Zuse-Zentrum fuer Informationstechnik Berlin (ZIB)

External codes: 
  Readline 7.0         GNU library for command line editing (gnu.org/s/readline)
  CPLEX 12.8.0.0       Linear Programming Solver developed by IBM (www.cplex.com)
  CppAD 20180000.0     Algorithmic Differentiation of C++ algorithms developed by B. Bell (www.coin-or.org/CppAD)
  ZLIB 1.2.11          General purpose compression library by J. Gailly and M. Adler (zlib.net)
  GMP 6.1.2            GNU Multiple Precision Arithmetic Library developed by T. Granlund (gmplib.org)
  bliss 0.73p          Computing Graph Automorphism Groups by T. Junttila and P. Kaski (http://www.tcs.hut.fi/Software/bliss/)

user parameter file <scip.set> not found - using default parameters

SCIP> 
SCIP> set load /home/optimi/bzfhende/opti/scip-opti/check/../settings/enable_treeeprofile.set
loaded parameter file </home/optimi/bzfhende/opti/scip-opti/check/../settings/enable_treeprofile.set>
SCIP> set misc referencevalue 27265.706
misc/referencevalue = 27265.706
SCIP> set limits time 7200
limits/time = 7200
SCIP> set limits nodes 2100000000
limits/nodes = 2100000000
SCIP> set limits memory 50000
limits/memory = 50000
SCIP> set lp advanced threads 1
lp/threads = 1
SCIP> set timing clocktype 1
timing/clocktype = 1
SCIP> set display freq 10000
display/freq = 10000
SCIP> set memory savefac 1.0
memory/savefac = 1
SCIP> set save /home/optimi/bzfhende/opti/scip-opti/check/treesize.estimation.jouurnal.3/bzfhende.miplib2017.125_neos-4647030-tutaki.scip.M640.enable_treeprofile..set
saved parameter file </home/optimi/bzfhende/opti/scip-opti/check/treesize.estimation.journal.3/bzfhende.miplib2017.125_neos-4647030-tutaki.scip.M640.enable_treeprofile.set>
SCIP> read /nfs/optimi/kombadon/IP/miplib2017/neos-4647030-tutaki.mps.gz

read problem </nfs/optimi/kombadon/IP/miplib2017/neos-4647030-tutaki.mps.gz>
============

original problem has 12600 variables (7000 bin, 0 int, 0 impl, 5600 cont) and 8382 constraints
SCIP> display parameters

number of parameters = 2448
non-default parameter settings:
display/freq = 10000
limits/time = 7200
limits/nodes = 2100000000
limits/memory = 50000
lp/threads = 1
memory/savefac = 1
misc/referencevalue = 27265.706
presolving/maxrestarts = 0
estimates/profile/enabled = TRUE
estimates/profile/maxdepthfactor = 10
estimates/profile/freq = 0

SCIP> optimize

Activating tree profile data collection
presolving:
(round 1, fast)       1400 del vars, 1400 del conss, 1400 add conss, 1452 chg bounds, 0 chg sides, 0 chg coeffs, 0 upgd conss, 1400 impls, 5600 clqs
(round 2, fast)       1400 del vars, 1400 del conss, 1400 add conss, 1452 chg bounds, 1400 chg sides, 0 chg coeffs, 0 upgd conss, 1400 impls, 8400 clqs
(round 3, exhaustive) 1400 del vars, 2789 del conss, 1400 add conss, 1452 chg bounds, 1400 chg sides, 0 chg coeffs, 0 upgd conss, 1400 impls, 8400 clqs
(round 4, exhaustive) 1400 del vars, 2789 del conss, 1400 add conss, 1452 chg bounds, 1400 chg sides, 0 chg coeffs, 1400 upgd conss, 1400 impls, 8400 clqs
   (2.6s) probing: 1000/7000 (14.3%) - 2 fixings, 0 aggregations, 2015 implications, 0 bound changes
   (2.6s) probing: 1090/7000 (15.6%) - 2 fixings, 0 aggregations, 2204 implications, 0 bound changes
   (2.6s) probing aborted: 1000/1000 successive useless probings
presolving (5 rounds: 5 fast, 3 medium, 3 exhaustive):
 1402 deleted vars, 2789 deleted constraints, 1400 added constraints, 1452 tightened bounds, 0 added holes, 1400 changed sides, 0 changed coefficients
 3604 implications, 9181 cliques
presolved problem has 11198 variables (6998 bin, 0 int, 0 impl, 4200 cont) and 6993 constraints
   1400 constraints of type <setppc>
   5593 constraints of type <linear>
Presolving Time: 2.41

 time | node  | left  |LP iter|LP it/n| mem |mdpt |frac |vars |cons |cols |rows |cuts |confs|strbr|  dualbound   | primalbound  |  gap   
V 7.3s|     1 |     0 |  3084 |     - | 963M|   0 |   - |  11k|7018 |  11k|6995 |   0 |  20 |   0 | 0.000000e+00 | 2.219846e+05 |    Inf 
  9.1s|     1 |     0 |  6004 |     - | 963M|   0 | 717 |  11k|7018 |  11k|6995 |   0 |  20 |   0 | 2.691164e+04 | 2.219846e+05 | 724.86%
 10.1s|     1 |     0 |  6039 |     - | 977M|   0 | 713 |  11k|7018 |  11k|7012 |  17 |  20 |   0 | 2.691164e+04 | 2.219846e+05 | 724.86%
 11.2s|     1 |     0 |  6449 |     - | 977M|   0 | 593 |  11k|7018 |  11k|7206 | 211 |  20 |   0 | 2.691570e+04 | 2.219846e+05 | 724.74%
 12.4s|     1 |     0 |  7080 |     - | 978M|   0 | 498 |  11k|7018 |  11k|7307 | 312 |  20 |   0 | 2.698199e+04 | 2.219846e+05 | 722.71%
 13.3s|     1 |     0 |  7471 |     - | 980M|   0 | 398 |  11k|7018 |  11k|7406 | 411 |  20 |   0 | 2.704484e+04 | 2.219846e+05 | 720.80%
 14.2s|     1 |     0 |  7759 |     - | 982M|   0 | 293 |  11k|7018 |  11k|7553 | 558 |  20 |   0 | 2.710941e+04 | 2.219846e+05 | 718.85%
 15.0s|     1 |     0 |  7967 |     - | 985M|   0 | 186 |  11k|7018 |  11k|7660 | 665 |  20 |   0 | 2.716918e+04 | 2.219846e+05 | 717.05%
 15.8s|     1 |     0 |  8293 |     - | 988M|   0 |  67 |  11k|7018 |  11k|7780 | 785 |  20 |   0 | 2.724214e+04 | 2.219846e+05 | 714.86%
 16.2s|     1 |     0 |  8369 |     - | 989M|   0 |   8 |  11k|7018 |  11k|7839 | 844 |  20 |   0 | 2.726468e+04 | 2.219846e+05 | 714.18%
F42.6s|     1 |     0 | 10187 |     - | 994M|   0 |   0 |  11k|7018 |  11k|7839 | 844 |  20 |   0 | 2.726468e+04 | 2.727126e+04 |   0.02%
E48.1s|     1 |     0 | 10187 |     - | 994M|   0 |   8 |  11k|7018 |  11k|7839 | 844 |  20 |   0 | 2.726468e+04 | 2.726848e+04 |   0.01%
 69.0s|     1 |     0 | 10187 |     - | 995M|   0 |   8 |  11k|7018 |  11k|7839 | 844 |  20 |   0 | 2.726468e+04 | 2.726848e+04 |   0.01%
 69.2s|     1 |     0 | 10187 |     - | 995M|   0 |   8 |  11k|7018 |  11k|7541 | 844 |  20 |   0 | 2.726468e+04 | 2.726848e+04 |   0.01%
 69.4s|     1 |     0 | 10190 |     - | 997M|   0 |   5 |  11k|6720 |  11k|7543 | 846 |  20 |   0 | 2.726504e+04 | 2.726848e+04 |   0.01%
 time | node  | left  |LP iter|LP it/n| mem |mdpt |frac |vars |cons |cols |rows |cuts |confs|strbr|  dualbound   | primalbound  |  gap   
 69.5s|     1 |     0 | 10190 |     - | 997M|   0 |   5 |  11k|6720 |  11k|7543 | 846 |  20 |   0 | 2.726504e+04 | 2.726848e+04 |   0.01%
 69.7s|     1 |     0 | 10192 |     - | 997M|   0 |   4 |  11k|6720 |  11k|7544 | 847 |  20 |   0 | 2.726517e+04 | 2.726848e+04 |   0.01%
 70.9s|     1 |     0 | 10192 |     - | 997M|   0 |   4 |  11k|6720 |  11k|7544 | 847 |  20 |   4 | 2.726519e+04 | 2.726848e+04 |   0.01%
SCIP nodes: 1 Estimation: -1
 71.0s|     1 |     2 | 10192 |     - | 998M|   0 |   4 |  11k|6720 |  11k|7544 | 847 |  20 |   4 | 2.726519e+04 | 2.726848e+04 |   0.01%
   (71.3s) symmetry computation started: requiring (bin +, int -, cont -), (fixed: bin -, int +, cont -)
   (71.9s) symmetry computation finished: 6 generators found (max: 1500, log10 of symmetry group size: 2.8)
   (71.9s) turning off presolver <domcol> for remaining computations in order to avoid conflicts
SCIP nodes: 2 Estimation: -1
SCIP nodes: 4 Estimation: -1
SCIP nodes: 8 Estimation: -1
SCIP nodes: 16 Estimation: -1
SCIP nodes: 32 Estimation: -1
SCIP nodes: 64 Estimation: -1
SCIP nodes: 128 Estimation: -1
SCIP nodes: 256 Estimation: -1
SCIP nodes: 512 Estimation: 3026.55
SCIP nodes: 1024 Estimation: 115394
SCIP nodes: 2048 Estimation: 115394
SCIP nodes: 4096 Estimation: 173605
SCIP nodes: 8192 Estimation: 173605
 2294s| 10000 | 10001 | 57289 |   5.2 |1550M|  49 |   2 |  11k|6802 |  11k|6093 | 847 | 102 | 244 | 2.726519e+04 | 2.726848e+04 |   0.01%
SCIP nodes: 16384 Estimation: 173605
 3669s| 20000 | 20001 | 76464 |   3.6 |1637M|  49 |   1 |  11k|6852 |  11k|6093 | 847 | 153 | 307 | 2.726519e+04 | 2.726848e+04 |   0.01%
 5026s| 30000 | 30001 | 93162 |   2.9 |1717M|  55 |   1 |  11k|6855 |  11k|6093 | 847 | 167 | 360 | 2.726519e+04 | 2.726848e+04 |   0.01%
SCIP nodes: 32768 Estimation: 184066
 6233s| 40000 | 40001 |109109 |   2.6 |1794M|  55 |   1 |  11k|6854 |  11k|6093 | 847 | 185 | 403 | 2.726519e+04 | 2.726848e+04 |   0.01%

SCIP Status        : solving was interrupted [time limit reached]
Solving Time (sec) : 7200.00
Solving Nodes      : 48096
Primal Bound       : +2.72684815000001e+04 (342 solutions)
Dual Bound         : +2.72651928512913e+04
Gap                : 0.01 %

SCIP> display statistics

SCIP Status        : solving was interrupted [time limit reached]
Total Time         :    7201.69
  solving          :    7200.00
  presolving       :       2.41 (included in solving)
  reading          :       1.69
  copying          :       3.54 (28 #copies) (minimal 0.12, maximal 0.13, average 0.13)
Original Problem   :
  Problem name     : neos-4647030-tutaki
  Variables        : 12600 (7000 binary, 0 integer, 0 implicit integer, 5600 continuous)
  Constraints      : 8382 initial, 8382 maximal
  Objective        : minimize, 1400 non-zeros (abs.min = 1, abs.max = 1)
Presolved Problem  :
  Problem name     : t_neos-4647030-tutaki
  Variables        : 11198 (6998 binary, 0 integer, 0 implicit integer, 4200 continuous)
  Constraints      : 6993 initial, 7018 maximal
  Objective        : minimize, 6998 non-zeros (abs.min = 8.3701, abs.max = 158.702)
Presolvers         :   ExecTime  SetupTime  Calls  FixedVars   AggrVars   ChgTypes  ChgBounds   AddHoles    DelCons    AddCons   ChgSides   ChgCoefs
  boundshift       :       0.00       0.00      0          0          0          0          0          0          0          0          0          0
  convertinttobin  :       0.00       0.00      0          0          0          0          0          0          0          0          0          0
  domcol           :       0.18       0.00      1          0          0          0          0          0          0          0          0          0
  dualagg          :       0.00       0.00      0          0          0          0          0          0          0          0          0          0
  dualcomp         :       0.11       0.00      1          0          0          0          0          0          0          0          0          0
  dualinfer        :       0.00       0.00      0          0          0          0          0          0          0          0          0          0
  gateextraction   :       0.00       0.00      0          0          0          0          0          0          0          0          0          0
  implics          :       0.00       0.00      3          0          0          0          0          0          0          0          0          0
  inttobinary      :       0.00       0.00      0          0          0          0          0          0          0          0          0          0
  qpkktref         :       0.00       0.00      0          0          0          0          0          0          0          0          0          0
  redvub           :       0.00       0.00      0          0          0          0          0          0          0          0          0          0
  sparsify         :       0.16       0.00      1          0          0          0          0          0          0          0          0          0
  stuffing         :       0.00       0.00      0          0          0          0          0          0          0          0          0          0
  symbreak         :       0.00       0.00      0          0          0          0          0          0          0          0          0          0
  symmetry         :       0.00       0.00      0          0          0          0          0          0          0          0          0          0
  trivial          :       0.01       0.00      5          0          0          0          0          0          0          0          0          0
  tworowbnd        :       0.00       0.00      0          0          0          0          0          0          0          0          0          0
  dualfix          :       0.00       0.00      5          0          0          0          0          0          0          0          0          0
  genvbounds       :       0.00       0.00      0          0          0          0          0          0          0          0          0          0
  orbitalfixing    :       0.00       0.00      0          0          0          0          0          0          0          0          0          0
  probing          :       0.65       0.00      1          2          0          0          0          0          0          0          0          0
  pseudoobj        :       0.00       0.00      0          0          0          0          0          0          0          0          0          0
  vbounds          :       0.00       0.00      1          0          0          0          0          0          0          0          0          0
  setppc           :       0.00       0.00      3          0          0          0          0          0          0          0          0          0
  linear           :       1.00       0.29      8          0       1400          0       1452          0       2789       1400       1400          0
  logicor          :       0.00       0.00      0          0          0          0          0          0          0          0          0          0
  bounddisjunction :       0.00       0.00      0          0          0          0          0          0          0          0          0          0
  benders          :       0.00       0.00      0          0          0          0          0          0          0          0          0          0
  components       :       0.17       0.00      1          0          0          0          0          0          0          0          0          0
  root node        :          -          -      -       4492          -          -       6919          -          -          -          -          -
Constraints        :     Number  MaxNumber  #Separate #Propagate    #EnfoLP    #EnfoRelax  #EnfoPS    #Check   #ResProp    Cutoffs    DomReds       Cuts    Applied      Conss   Children
  benderslp        :          0          0          0          0      48391          0          0       2049          0          0          0          0          0          0          0
  integral         :          0          0          0          0      48391          0          0       2049          0          0        420          0          0          0      96190
  setppc           :       1400       1400         12     192998          0          0          0       2043       4434          0     426742          0          0          0          0
  linear           :       5593+      5597         12     193004          0          0          0       2039       6206         24    1915981         21          5          0          0
  logicor          :          0+         1         12          6          0          0          0          0          0          0          0          0          0          0          0
  bounddisjunction :          0+       170          0       4197          0          0          0          0         79          0          0          0          0          0          0
  benders          :          0          0          0          0          0          0          0        343          0          0          0          0          0          0          0
  countsols        :          0          0          0          0          0          0          0        343          0          0          0          0          0          0          0
  components       :          0          0          0          0          0          0          0          0          0          0          0          0          0          0          0
Constraint Timings :  TotalTime  SetupTime   Separate  Propagate     EnfoLP     EnfoPS     EnfoRelax   Check    ResProp    SB-Prop
  benderslp        :       0.01       0.00       0.00       0.00       0.01       0.00       0.00       0.00       0.00       0.00
  integral         :     128.26       0.00       0.00       0.00     128.25       0.00       0.00       0.01       0.00       0.00
  setppc           :       1.67       0.00       0.02       1.23       0.00       0.00       0.00       0.42       0.00       0.00
  linear           :     136.22       0.29       0.86      77.86       0.00       0.00       0.00      57.09       0.03       0.09
  logicor          :       0.00       0.00       0.00       0.00       0.00       0.00       0.00       0.00       0.00       0.00
  bounddisjunction :       0.08       0.00       0.00       0.08       0.00       0.00       0.00       0.00       0.00       0.00
  benders          :       0.00       0.00       0.00       0.00       0.00       0.00       0.00       0.00       0.00       0.00
  countsols        :       0.00       0.00       0.00       0.00       0.00       0.00       0.00       0.00       0.00       0.00
  components       :       0.05       0.00       0.00       0.05       0.00       0.00       0.00       0.00       0.00       0.00
Propagators        : #Propagate   #ResProp    Cutoffs    DomReds
  dualfix          :          7          0          0          0
  genvbounds       :          0          0          0          0
  nlobbt           :          0          0          0          0
  obbt             :          0          0          0          0
  orbitalfixing    :      48095          0          0          0
  probing          :          0          0          0          0
  pseudoobj        :     165054          0          0          0
  redcost          :     110219          0          0     864544
  rootredcost      :          1          0          0        775
  vbounds          :     238087          0          0          0
Propagator Timings :  TotalTime  SetupTime   Presolve  Propagate    ResProp    SB-Prop
  dualfix          :       0.00       0.00       0.00       0.00       0.00       0.00
  genvbounds       :       0.27       0.00       0.00       0.27       0.00       0.00
  nlobbt           :       0.00       0.00       0.00       0.00       0.00       0.00
  obbt             :       0.00       0.00       0.00       0.00       0.00       0.00
  orbitalfixing    :       7.63       0.00       0.00       7.63       0.00       0.00
  probing          :       0.65       0.00       0.65       0.00       0.00       0.00
  pseudoobj        :       0.41       0.00       0.00       0.41       0.00       0.00
  redcost          :      53.22       0.00       0.00      53.22       0.00       0.00
  rootredcost      :       0.20       0.00       0.00       0.20       0.00       0.00
  vbounds          :       0.24       0.00       0.00       0.24       0.00       0.00
Orbital fixing     :
  vars fixed to 0  :          0
  vars fixed to 1  :          0
Conflict Analysis  :       Time      Calls    Success    DomReds  Conflicts   Literals    Reconvs ReconvLits   Dualrays   Nonzeros   LP Iters   (pool size: [10000,10000])
  propagation      :       0.00          0          0          -          0        0.0          0        0.0          -          -          -
  infeasible LP    :       0.03         59          2          -         52      630.8         12        6.0          2      226.0          0
  bound exceed. LP :       8.42         95         96          -        217      117.7         86        2.1          1        1.0        641
  strong branching :       0.00          0          0          -          0        0.0          0        0.0          -          -          0
  pseudo solution  :       0.00          0          0          -          0        0.0          0        0.0          -          -          -
  applied globally :       0.01          -          -          1        204       76.8          -          -          3          -          -
  applied locally  :          -          -          -          0          0        0.0          -          -          0          -          -
Separators         :   ExecTime  SetupTime      Calls    Cutoffs    DomReds       Cuts    Applied      Conss
  cut pool         :       0.10                  5191          -          -        931          -          -    (maximal pool size: 1676)
  aggregation      :      19.73       0.00       1611          0          0          0          0          0
  cgmip            :       0.00       0.00          0          0          0          0          0          0
  clique           :       0.09       0.00         12          0          0          0          0          0
  closecuts        :       0.00       0.00          0          0          0          0          0          0
  cmir             :       0.00       0.00          0          0          0          0         56          0
  convexproj       :       0.00       0.00          0          0          0          0          0          0
  disjunctive      :       0.00       0.00          0          0          0          0          0          0
  eccuts           :       0.00       0.00          0          0          0          0          0          0
  flowcover        :       0.00       0.00          0          0          0          0          0          0
  gauge            :       0.00       0.00          0          0          0          0          0          0
  gomory           :       0.63       0.00       1609          0          0          0        783          0
  impliedbounds    :       0.48       0.00       1611          0          0          0          0          0
  intobj           :       0.00       0.00          0          0          0          0          0          0
  mcf              :       0.00       0.00          1          0          0          0          0          0
  oddcycle         :       0.00       0.00          0          0          0          0          0          0
  rapidlearning    :       0.00       0.00          0          0          0          0          0          0
  strongcg         :       0.09       0.00         44          0          0          0          1          0
  zerohalf         :       3.16       0.00       1611          0          0          0          2          0
Pricers            :   ExecTime  SetupTime      Calls       Vars
  problem variables:       0.00          -          0          0
Branching Rules    :   ExecTime  SetupTime   BranchLP  BranchExt   BranchPS    Cutoffs    DomReds       Cuts      Conss   Children
  allfullstrong    :       0.00       0.00          0          0          0          0          0          0          0          0
  cloud            :       0.00       0.00          0          0          0          0          0          0          0          0
  distribution     :       0.00       0.00          0          0          0          0          0          0          0          0
  fullstrong       :       0.00       0.00          0          0          0          0          0          0          0          0
  inference        :       0.00       0.00          0          0          0          0          0          0          0          0
  leastinf         :       0.00       0.00          0          0          0          0          0          0          0          0
  lookahead        :       0.00       0.00          0          0          0          0          0          0          0          0
  mostinf          :       0.00       0.00          0          0          0          0          0          0          0          0
  multaggr         :       0.00       0.00          0          0          0          0          0          0          0          0
  nodereopt        :       0.00       0.00          0          0          0          0          0          0          0          0
  pscost           :       0.00       0.00          0          0          0          0          0          0          0          0
  random           :       0.00       0.00          0          0          0          0          0          0          0          0
  relpscost        :     128.18       0.00      48391          0          0          0        420          0          0      96190
Primal Heuristics  :   ExecTime  SetupTime      Calls      Found       Best
  LP solutions     :       0.00          -          -          0          0
  relax solutions  :       0.00          -          -          0          0
  pseudo solutions :       0.00          -          -          0          0
  strong branching :       0.11          -          -          0          0
  actconsdiving    :       0.00       0.00          0          0          0
  alns             :     264.25       0.00          7          0          0
  bound            :       0.00       0.00          0          0          0
  clique           :       1.42       0.00          1          0          0
  coefdiving       :     334.34       0.00         93          0          0
  completesol      :       0.00       0.00          0          0          0
  conflictdiving   :       0.00       0.00          0          0          0
  crossover        :     208.26       0.00          7          6          0
  dins             :       0.00       0.00          0          0          0
  distributiondivin:     186.93       0.00         16          0          0
  dualval          :       0.00       0.00          0          0          0
  farkasdiving     :      25.31       0.00          1          0          0
  feaspump         :       0.69       0.00          1          1          1
  fixandinfer      :       0.00       0.00          0          0          0
  fracdiving       :     146.52       0.00         25          0          0
  gins             :       0.38       0.00          0          0          0
  guideddiving     :     367.24       0.00         50          0          0
  indicator        :       0.04       0.00          0          0          0
  intdiving        :       0.00       0.00          0          0          0
  intshifting      :      34.50       0.00         57          0          0
  linesearchdiving :     346.53       0.00        150          0          0
  localbranching   :       0.00       0.00          0          0          0
  locks            :       1.16       0.00          1          0          0
  lpface           :      32.89       0.00          7          0          0
  mpec             :       0.00       0.00          0          0          0
  multistart       :       0.00       0.00          0          0          0
  mutation         :       0.00       0.00          0          0          0
  nlpdiving        :       0.01       0.00          0          0          0
  objpscostdiving  :      54.32       0.00         33          0          0
  octane           :       0.00       0.00          0          0          0
  ofins            :       0.05       0.00          0          0          0
  oneopt           :       0.18       0.00          2          0          0
  proximity        :       0.00       0.00          0          0          0
  pscostdiving     :     206.15       0.00         33          0          0
  randrounding     :      49.34       0.00       2562          0          0
  rens             :       5.85       0.00          1          1          1
  reoptsols        :       0.00       0.00          0          0          0
  repair           :       0.00       0.00          0          0          0
  rins             :      76.10       0.00         13         13          0
  rootsoldiving    :     116.97       0.00          2          1          0
  rounding         :       0.48       0.00       3054          0          0
  shiftandpropagate:       0.00       0.00          0          0          0
  shifting         :      22.07       0.00       4684        319          0
  simplerounding   :       0.05       0.00          0          0          0
  subnlp           :       0.00       0.00          0          0          0
  trivial          :       0.00       0.00          2          0          0
  trivialnegation  :       0.00       0.00          0          0          0
  trysol           :       0.07       0.00          0          0          0
  twoopt           :       0.00       0.00          0          0          0
  undercover       :       0.00       0.00          0          0          0
  vbounds          :       1.90       0.00          1          1          1
  veclendiving     :      85.58       0.00         10          0          0
  zeroobj          :       0.00       0.00          0          0          0
  zirounding       :       0.21       0.00       1000          0          0
  other solutions  :          -          -          -          0          -
Diving Statistics  :      Calls      Nodes   LP Iters Backtracks  Conflicts   MinDepth   MaxDepth   AvgDepth  RoundSols  NLeafSols  MinSolDpt  MaxSolDpt  AvgSolDpt
  actconsdiving    :          0          -          -          -          -          -          -          -          -          -          -          -          -
  coefdiving       :         93       4101       4209          0        103         68         96       89.5          0          -          -          -          -
  conflictdiving   :          0          -          -          -          -          -          -          -          -          -          -          -          -
  distributiondivin:         16       2170       5848         21         99         84        538      175.5          0          -          -          -          -
  farkasdiving     :          1        300        585          0          0        301        301      301.0          0          -          -          -          -
  fracdiving       :         25       1697       5012          0         70        102        121      112.0          0          -          -          -          -
  guideddiving     :         50       4480       4530          0         24        134        134      134.0          0          -          -          -          -
  linesearchdiving :        150       4097       4097          0          0         61         82       73.8          0          -          -          -          -
  pscostdiving     :         33       2670       4788          0          0        111        312      126.1          0          -          -          -          -
  veclendiving     :         10        946       6526          0          8        131        143      137.7          0          -          -          -          -
Neighborhoods      :      Calls  SetupTime  SolveTime SolveNodes       Sols       Best       Exp3  EpsGreedy        UCB TgtFixRate  Opt  Inf Node Stal  Sol  Usr Othr Actv
  rens             :          1       0.37      50.85         50          0          0    0.00000   -1.00000    1.00000      0.900    0    0    0    1    0    0    0    1
  rins             :          1       0.38      52.22         56          0          0    0.00000   -1.00000    1.00000      0.900    0    0    0    1    0    0    0    1
  mutation         :          1       0.39      25.54         50          0          0    0.00000   -1.00000    1.00000      0.900    0    0    0    1    0    0    0    1
  localbranching   :          0       0.00       0.00          0          0          0    0.00000   -1.00000    1.00000      0.900    0    0    0    0    0    0    0    1
  crossover        :          1       0.37      73.65         50          0          0    0.00000   -1.00000    1.00000      0.900    0    0    0    1    0    0    0    1
  proximity        :          1       0.33      20.00         50          0          0    0.00000   -1.00000    1.00000      0.900    0    0    0    1    0    0    0    1
  zeroobjective    :          1       0.32      19.79         55          0          0    0.00000   -1.00000    1.00000      0.900    0    0    0    1    0    0    0    1
  dins             :          1       0.35      17.80         76          0          0    0.00000   -1.00000    1.00000      0.900    0    0    0    1    0    0    0    1
LP                 :       Time      Calls Iterations  Iter/call   Iter/sec  Time-0-It Calls-0-It    ItLimit
  primal LP        :       0.27          1          0       0.00       0.00       0.27          1
  dual LP          :    4210.44      61827      57791       1.20      13.73     209.54      13721
  lex dual LP      :       0.00          0          0       0.00          -
  barrier LP       :       0.00          0          0       0.00          -       0.00          0
  resolve instable :       0.00          0          0       0.00          -
  diving/probing LP:    1881.85      20830      65371       3.14      34.74
  strong branching :      94.22        435        919       2.11       9.75          -          -          0
    (at root node) :          -          4         10       2.50          -
  conflict analysis:       8.02        103        641       6.22      79.93
B&B Tree           :
  number of runs   :          1
  nodes            :      48096 (48095 internal, 1 leaves)
  feasible leaves  :          0
  infeas. leaves   :          0
  objective leaves :          0
  nodes (total)    :      48096 (48095 internal, 1 leaves)
  nodes left       :      48096
  max depth        :         55
  max depth (total):         55
  backtracks       :       1684 (3.5%)
  early backtracks :       1683 (99.9%)
  nodes exc. ref.  :          3 (0.0%)
  delayed cutoffs  :          0
  repropagations   :          2 (0 domain reductions, 0 cutoffs)
  avg switch length:       2.26
  switching time   :      32.63
Root Node          :
  First LP value   : +2.69116416155534e+04
  First LP Iters   :       2920 (1631.28 Iter/sec)
  First LP Time    :       1.79
  Final Dual Bound : +2.72651926618360e+04
  Final Root Iters :       5290
  Root LP Estimate : +2.72651732184101e+04
Solution           :
  Solutions found  :        342 (3 improvements)
  First Solution   : +2.21984641200001e+05   (in run 1, after 1 nodes, 7.26 seconds, depth 1401, found by <vbounds>)
  Gap First Sol.   :   infinite
  Gap Last Sol.    :       0.01 %
  Primal Bound     : +2.72684815000001e+04   (in run 1, after 1 nodes, 48.11 seconds, depth 0, found by <rens>)
  Dual Bound       : +2.72651928512913e+04
  Gap              :       0.01 %
  Avg. Gap         :       0.55 % (3938.19 primal-dual integral)
  Tree Data        : 96191 nodes (48095 visited, 48095 inner, 0 leaves, 48096 open), progress: 0.0000
Tree Estimation    :       estim       value       trend  resolution      smooth
  wbe              :          -1           -           -           -           -
  tree profile     :      184066           -           -           -           -
  gap              :          -1     0.00000 999999999999999967336168804116691273849533185806555472917961779471295845921727862608739868455469056.00000           1 999999999999999967336168804116691273849533185806555472917961779471295845921727862608739868455469056
  progress         :          -1     0.00000 999999999999999967336168804116691273849533185806555472917961779471295845921727862608739868455469056.00000           1 999999999999999967336168804116691273849533185806555472917961779471295845921727862608739868455469056
  leaf-frequency   :          -1    -0.50000 999999999999999967336168804116691273849533185806555472917961779471295845921727862608739868455469056.00000           1 999999999999999967336168804116691273849533185806555472917961779471295845921727862608739868455469056
  ssg              :          -1     1.00000 999999999999999967336168804116691273849533185806555472917961779471295845921727862608739868455469056.00000           1 999999999999999967336168804116691273849533185806555472917961779471295845921727862608739868455469056
  open-nodes       :          -1     0.00000 999999999999999967336168804116691273849533185806555472917961779471295845921727862608739868455469056.00000           1 999999999999999967336168804116691273849533185806555472917961779471295845921727862608739868455469056

@04 1566492293
-----------------------------
Do 22. Aug 18:44:53 CEST 2019
-----------------------------

=ready=
